
Gurobi 6.0.4 (win64) logging started 06/14/15 17:05:43

Read LP format model from file C:\MT\repository\VRPTWMS\instances\mip\freight\N6-C_DV10-C_SV50_F14_0_No_1.lp
Reading time = 0.00 seconds
(null): 217 rows, 141 columns, 849 nonzeros
Optimize a model with 217 rows, 141 columns and 849 nonzeros
Model has 294 quadratic constraints
WARNING: Only barrier available for SOCP models
Coefficient statistics:
  Matrix range    [1e+00, 1e+02]
  Objective range [7e+00, 1e+03]
  Bounds range    [1e+00, 1e+02]
  RHS range       [1e+00, 1e+02]
Presolve removed 35 rows and 16 columns
Presolve time: 0.02s
Presolved: 838 rows, 471 columns, 3701 nonzeros
Variable types: 310 continuous, 161 integer (121 binary)
Found heuristic solution: objective 6271.0800000
Optimize a model with 838 rows, 471 columns and 3701 nonzeros
Coefficient statistics:
  Matrix range    [1e+00, 9e+02]
  Objective range [7e+00, 1e+03]
  Bounds range    [1e+00, 1e+02]
  RHS range       [1e+00, 4e+02]
Presolve removed 41 rows and 23 columns
Presolved: 797 rows, 450 columns, 3515 nonzeros


Root relaxation: objective 8.120463e+02, 154 iterations, 0.01 seconds

    Nodes    |    Current Node    |     Objective Bounds      |     Work
 Expl Unexpl |  Obj  Depth IntInf | Incumbent    BestBd   Gap | It/Node Time

     0     0  812.04629    0   54 6271.08000  812.04629  87.1%     -    0s
H    0     0                    5242.0200000  812.04629  84.5%     -    0s
     0     0 1178.57537    0   41 5242.02000 1178.57537  77.5%     -    0s
H    0     0                    4183.8500000 1178.57537  71.8%     -    0s
     0     0 1188.24791    0   72 4183.85000 1188.24791  71.6%     -    0s
     0     0 1190.69108    0   54 4183.85000 1190.69108  71.5%     -    0s
     0     0 1196.57938    0   78 4183.85000 1196.57938  71.4%     -    0s
     0     0 1196.81355    0   90 4183.85000 1196.81355  71.4%     -    0s
     0     0 1197.17125    0   70 4183.85000 1197.17125  71.4%     -    0s
     0     0 1197.17125    0   76 4183.85000 1197.17125  71.4%     -    0s
     0     0 1197.17125    0   76 4183.85000 1197.17125  71.4%     -    0s
     0     2 1197.17125    0   73 4183.85000 1197.17125  71.4%     -    0s
*   57    32              18    3221.6400000 1223.20500  62.0%  41.4    0s
H  576   130                    3218.1400000 1881.22654  41.5%  35.0    0s
*  667   139               9    3203.8900000 2162.55640  32.5%  35.5    0s
*  688   135               3    3188.1900000 2174.87917  31.8%  35.0    0s
* 1694   133              15    3188.1000000 2255.76000  29.2%  33.8    1s

Cutting planes:
  Learned: 1
  Gomory: 2
  Cover: 94
  Implied bound: 110
  Clique: 35
  MIR: 98
  Flow cover: 9
  GUB cover: 12
  Zero half: 2
  Mod-K: 2

Explored 2157 nodes (69855 simplex iterations) in 1.73 seconds
Thread count was 2 (of 4 available processors)

Optimal solution found (tolerance 1.00e-04)
Best objective 3.188100000000e+03, best bound 3.188100000000e+03, gap 0.0%
k_c1	8.999999999999998
k_c2	10.0
k_c3	-0.0
k_c4	5.0
k_c5	10.0
k_c6	0.0
k_dN	-0.0
kDash_c1	-0.0
kDash_c2	5.0
kDash_c3	3.0
kDash_c4	0.0
kDash_c5	9.0
kDash_c6	5.0
o_1	0.0
o_2	0.0
o_3	1.0
o_4	0.0
o_5	0.0
o_6	1.0
p_1	0.0
p_2	-0.0
p_3	1.0
p_4	0.0
p_5	0.0
p_6	1.0
phi_c1	3.9999999999999973
phi_c2	12.0
phi_c3	2.0000000000000058
phi_c4	3.9999999999999782
phi_c5	11.0
phi_c6	1.0
phi_d0	14.0
phi_dN	-0.0
pi_c1	14.999999999999893
pi_c2	4.999999999999893
pi_c3	19.999999999999893
pi_c4	19.999999999999893
pi_c5	19.999999999999893
pi_c6	9.999999999999893
pi_dN	-0.0
tauD_c1	70.0
tauD_c2	30.0
tauD_c3	57.0
tauD_c4	50.0
tauD_c5	25.0
tauD_c6	86.0
tauD_d0	-0.0
tauD_dN	100.0
tauS_c1	82.0
tauS_c2	88.0
tauS_c3	57.0
tauS_c4	85.0
tauS_c5	83.0
tauS_c6	69.0
tauS_d0	-0.0
tauS_dN	96.00000000000054
x_c1_c6	1.0
x_c2_c4	1.0
x_c3_dN	1.0
x_c4_c3	1.0
x_c5_c1	1.0
x_c6_dN	1.0
x_d0_c2	1.0
x_d0_c5	1.0
z_c3_c6	1.0
z_c6_dN	0.9999999999999947
z_d0_c3	1.0
